CMPL model generation - running

CMPL version: 1.11.0
Authors: Thomas Schleiff, Mike Steglich
Distributed under the GPLv3 

create model instance ...
write model instance ...
CMPL model generation - finished

Solver - running


Welcome to IBM(R) ILOG(R) CPLEX(R) Interactive Optimizer 12.7.1.0
  with Simplex, Mixed Integer & Barrier Optimizers
5725-A06 5725-A29 5724-Y48 5724-Y49 5724-Y54 5724-Y55 5655-Y21
Copyright IBM Corp. 1988, 2017.  All Rights Reserved.

Type 'help' for a list of available commands.
Type 'help' followed by a command name for more
information on commands.

CPLEX> Specified objective sense: MINIMIZE
Selected objective  name:  line[1]
Selected RHS        name:  RHS
Selected bound      name:  BOUND
Problem '/tmp/cmpl.T24479.mps' read.
Read time = 0.07 sec. (8.18 ticks)
CPLEX> CPXPARAM_Read_APIEncoding                        "UTF-8"
Tried aggregator 3 times.
MIP Presolve eliminated 19122 rows and 30482 columns.
MIP Presolve modified 340 coefficients.
Aggregator did 703 substitutions.
Reduced MIP has 2530 rows, 3408 columns, and 9930 nonzeros.
Reduced MIP has 3240 binaries, 0 generals, 0 SOSs, and 0 indicators.
Presolve time = 0.06 sec. (40.71 ticks)
Found incumbent of value 1452.522290 after 0.12 sec. (74.14 ticks)
Probing fixed 19 vars, tightened 0 bounds.
Probing time = 0.01 sec. (4.47 ticks)
Tried aggregator 1 time.
MIP Presolve eliminated 0 rows and 19 columns.
MIP Presolve modified 101 coefficients.
Reduced MIP has 2530 rows, 3389 columns, and 9892 nonzeros.
Reduced MIP has 3389 binaries, 0 generals, 0 SOSs, and 0 indicators.
Presolve time = 0.01 sec. (8.46 ticks)
Probing time = 0.01 sec. (2.71 ticks)
Clique table members: 6066.
MIP emphasis: balance optimality and feasibility.
MIP search method: dynamic search.
Parallel mode: none, using 1 thread.
Root relaxation solution time = 0.01 sec. (6.40 ticks)

        Nodes                                         Cuts/
   Node  Left     Objective  IInf  Best Integer    Best Bound    ItCnt     Gap

*     0+    0                         1452.5223      -16.1688           101.11%
      0     0      344.0613     4     1452.5223      344.0613      250   76.31%
*     0+    0                          346.1093      344.0613             0.59%
*     0+    0                          344.1756      344.0613             0.03%
      0     0      344.1369     1      344.1756       Cuts: 6      255    0.01%
*     0+    0                          344.1393      344.1369             0.00%

GUB cover cuts applied:  1
Cover cuts applied:  3
Gomory fractional cuts applied:  2

Root node processing (before b&c):
  Real time             =    0.19 sec. (121.69 ticks)
Sequential b&c:
  Real time             =    0.00 sec. (0.00 ticks)
                          ------------
Total (root+branch&cut) =    0.19 sec. (121.69 ticks)

Solution pool: 4 solutions saved.

MIP - Integer optimal, tolerance (0.0001/1e-06):  Objective =  3.4413934400e+02
Current MIP best bound =  3.4413687450e+02 (gap = 0.0024695, 0.00%)
Solution time =    0.19 sec.  Iterations = 255  Nodes = 0 (1)
Deterministic time = 121.79 ticks  (652.62 ticks/sec)

CPLEX> Incumbent solution written to file '/tmp/cmpl.T24479.gsol'.
CPLEX> 
CMPL: Time used for model generation: 1 seconds
CMPL: Time used for solving the model: 1 seconds


Solution written to ASCII file: results/output_generated_conf_0.7/2016-09-05-4/fair-nonlinear.sol

Solver - finished
